23  
31  
38  
28 
40  
2  
43  
17  
6  
42  
16  
26  
18 
36 
30 
37  
8  
7  
0  
15  
21  
39  
45  
14  
10  
12  
24  
47  
4  
41  
9  
20  
46  
19  
32  
35 
27 
5 
29 
11 
22 
13 
33 
1 
25 
3 
34 
44